(set-info :source |printed by MathSAT|)
(declare-fun |!{$(in_main#0)<N>}| () Int)
(declare-fun |!{$(in_main#0)<N>}.next| () Int)
(declare-fun |!{$(in_main#0)<i>}| () Int)
(declare-fun |!{$(in_main#0)<i>}.next| () Int)
(declare-fun |!{$(in_main#0)<idx>}| () Int)
(declare-fun |!{$(in_main#0)<idx>}.next| () Int)
(declare-fun |!{$(in_main#0)<j>}| () Int)
(declare-fun |!{$(in_main#0)<j>}.next| () Int)
(declare-fun |!{$(in_main#0)<k>}| () Int)
(declare-fun |!{$(in_main#0)<k>}.next| () Int)
(declare-fun |!{$(in_main#0)<k#1>}| () Int)
(declare-fun |!{$(in_main#0)<k#1>}.next| () Int)
(declare-fun |!{$(in_main#0)<v>}| () Int)
(declare-fun |!{$(in_main#0)<v>}.next| () Int)
(declare-fun |!{$(in_main#0)<array.1>}| () (Array Int Int))
(declare-fun |!{$(in_main#0)<array.1>}.next| () (Array Int Int))
(declare-fun |!{$(in_main#0)<$(in___VERIFIER_nondet_int#0)<h#<__VERIFIER_nondet_int.return>>>}| () Int)
(declare-fun |!{$(in_main#0)<$(in___VERIFIER_nondet_int#2)<h#<__VERIFIER_nondet_int.return>>>}| () Int)
(declare-fun |!{$(in_main#0)<$(in___VERIFIER_nondet_int#3)<h#<__VERIFIER_nondet_int.return>>>}| () Int)
(declare-fun !pc () Int)
(declare-fun !pc.next () Int)
(declare-fun |%{$(in_main#0)<i>}#1| () Int)
(declare-fun |%{$(in_main#0)<idx>}#1| () Int)
(declare-fun |%{$(in_main#0)<j>}#1| () Int)
(declare-fun |%{$(in_main#0)<k#1>}#1| () Int)
(declare-fun |%{$(in_main#0)<v>}#1| () Int)
(declare-fun |%{$(in_main#0)<array.1>}#1| () (Array Int Int))
(declare-fun |%{$(in_main#0)<idx>}#2| () Int)
(declare-fun |%{$(in_main#0)<idx>}#4| () Int)
(define-fun .def_44 () Int (! !pc :next !pc.next))
(define-fun .def_47 () Bool (! (= .def_44 2) :init true))
(define-fun .def_278 () Bool (= .def_44 44))
(define-fun .def_242 () Bool (= !pc.next 74))
(define-fun .def_281 () Bool (and .def_242 .def_278))
(define-fun .def_274 () Bool (= |!{$(in_main#0)<v>}.next| |!{$(in_main#0)<$(in___VERIFIER_nondet_int#3)<h#<__VERIFIER_nondet_int.return>>>}|))
(define-fun .def_8 () Int (! |!{$(in_main#0)<N>}| :next |!{$(in_main#0)<N>}.next|))
(define-fun .def_270 () Bool (= .def_8 |!{$(in_main#0)<j>}.next|))
(define-fun .def_268 () Bool (= |!{$(in_main#0)<idx>}.next| (- 1)))
(define-fun .def_266 () Bool (= |!{$(in_main#0)<i>}.next| 0))
(define-fun .def_98 () Bool (= .def_8 |!{$(in_main#0)<N>}.next|))
(define-fun .def_267 () Bool (and .def_98 .def_266))
(define-fun .def_269 () Bool (and .def_267 .def_268))
(define-fun .def_271 () Bool (and .def_269 .def_270))
(define-fun .def_16 () Int (! |!{$(in_main#0)<k>}| :next |!{$(in_main#0)<k>}.next|))
(define-fun .def_106 () Bool (= .def_16 |!{$(in_main#0)<k>}.next|))
(define-fun .def_272 () Bool (and .def_106 .def_271))
(define-fun .def_18 () Int (! |!{$(in_main#0)<k#1>}| :next |!{$(in_main#0)<k#1>}.next|))
(define-fun .def_108 () Bool (= .def_18 |!{$(in_main#0)<k#1>}.next|))
(define-fun .def_273 () Bool (and .def_108 .def_272))
(define-fun .def_275 () Bool (and .def_273 .def_274))
(define-fun .def_22 () (Array Int Int) (! |!{$(in_main#0)<array.1>}| :next |!{$(in_main#0)<array.1>}.next|))
(define-fun .def_112 () Bool (= .def_22 |!{$(in_main#0)<array.1>}.next|))
(define-fun .def_276 () Bool (and .def_112 .def_275))
(define-fun .def_253 () Bool (<= .def_8 .def_16))
(define-fun .def_277 () Bool (and .def_253 .def_276))
(define-fun .def_282 () Bool (and .def_277 .def_281))
(define-fun .def_84 () Bool (= !pc.next 44))
(define-fun .def_279 () Bool (and .def_84 .def_278))
(define-fun .def_255 () (Array Int Int) (store .def_22 .def_16 |!{$(in_main#0)<$(in___VERIFIER_nondet_int#2)<h#<__VERIFIER_nondet_int.return>>>}|))
(define-fun .def_263 () Bool (= |!{$(in_main#0)<array.1>}.next| .def_255))
(define-fun .def_257 () Int (* (- 1) |!{$(in_main#0)<k>}.next|))
(define-fun .def_258 () Int (+ .def_16 .def_257))
(define-fun .def_259 () Bool (= .def_258 (- 1)))
(define-fun .def_10 () Int (! |!{$(in_main#0)<i>}| :next |!{$(in_main#0)<i>}.next|))
(define-fun .def_100 () Bool (= .def_10 |!{$(in_main#0)<i>}.next|))
(define-fun .def_115 () Bool (and .def_98 .def_100))
(define-fun .def_12 () Int (! |!{$(in_main#0)<idx>}| :next |!{$(in_main#0)<idx>}.next|))
(define-fun .def_102 () Bool (= .def_12 |!{$(in_main#0)<idx>}.next|))
(define-fun .def_116 () Bool (and .def_102 .def_115))
(define-fun .def_14 () Int (! |!{$(in_main#0)<j>}| :next |!{$(in_main#0)<j>}.next|))
(define-fun .def_104 () Bool (= .def_14 |!{$(in_main#0)<j>}.next|))
(define-fun .def_117 () Bool (and .def_104 .def_116))
(define-fun .def_260 () Bool (and .def_117 .def_259))
(define-fun .def_261 () Bool (and .def_108 .def_260))
(define-fun .def_20 () Int (! |!{$(in_main#0)<v>}| :next |!{$(in_main#0)<v>}.next|))
(define-fun .def_110 () Bool (= .def_20 |!{$(in_main#0)<v>}.next|))
(define-fun .def_262 () Bool (and .def_110 .def_261))
(define-fun .def_264 () Bool (and .def_262 .def_263))
(define-fun .def_254 () Bool (not .def_253))
(define-fun .def_265 () Bool (and .def_254 .def_264))
(define-fun .def_280 () Bool (and .def_265 .def_279))
(define-fun .def_283 () Bool (or .def_280 .def_282))
(define-fun .def_241 () Bool (= .def_44 74))
(define-fun .def_138 () Bool (= !pc.next 115))
(define-fun .def_249 () Bool (and .def_138 .def_241))
(define-fun .def_234 () Bool (= |!{$(in_main#0)<k#1>}.next| 0))
(define-fun .def_118 () Bool (and .def_106 .def_117))
(define-fun .def_235 () Bool (and .def_118 .def_234))
(define-fun .def_236 () Bool (and .def_110 .def_235))
(define-fun .def_237 () Bool (and .def_112 .def_236))
(define-fun .def_195 () Bool (= .def_12 (- 1)))
(define-fun .def_238 () Bool (and .def_195 .def_237))
(define-fun .def_157 () Bool (<= .def_10 .def_14))
(define-fun .def_154 () Bool (<= .def_14 0))
(define-fun .def_155 () Bool (not .def_154))
(define-fun .def_152 () Bool (<= .def_8 .def_10))
(define-fun .def_153 () Bool (not .def_152))
(define-fun .def_156 () Bool (and .def_153 .def_155))
(define-fun .def_158 () Bool (and .def_156 .def_157))
(define-fun .def_194 () Bool (not .def_158))
(define-fun .def_239 () Bool (and .def_194 .def_238))
(define-fun .def_250 () Bool (and .def_239 .def_249))
(define-fun .def_245 () Bool (= !pc.next 161))
(define-fun .def_246 () Bool (and .def_241 .def_245))
(define-fun .def_197 () Int (select .def_22 .def_12))
(define-fun .def_198 () Bool (= .def_20 .def_197))
(define-fun .def_199 () Int (ite .def_198 1 0))
(define-fun .def_200 () Bool (= .def_199 0))
(define-fun .def_224 () Bool (and .def_98 .def_200))
(define-fun .def_225 () Bool (and .def_100 .def_224))
(define-fun .def_226 () Bool (and .def_102 .def_225))
(define-fun .def_227 () Bool (and .def_104 .def_226))
(define-fun .def_228 () Bool (and .def_106 .def_227))
(define-fun .def_229 () Bool (and .def_108 .def_228))
(define-fun .def_230 () Bool (and .def_110 .def_229))
(define-fun .def_231 () Bool (and .def_112 .def_230))
(define-fun .def_196 () Bool (not .def_195))
(define-fun .def_232 () Bool (and .def_196 .def_231))
(define-fun .def_233 () Bool (and .def_194 .def_232))
(define-fun .def_247 () Bool (and .def_233 .def_246))
(define-fun .def_243 () Bool (and .def_241 .def_242))
(define-fun .def_213 () Int (* (- 1) |!{$(in_main#0)<j>}.next|))
(define-fun .def_214 () Int (+ .def_14 .def_213))
(define-fun .def_215 () Bool (= .def_214 1))
(define-fun .def_211 () Bool (= |!{$(in_main#0)<idx>}.next| |%{$(in_main#0)<idx>}#4|))
(define-fun .def_207 () Int (* (- 1) |!{$(in_main#0)<i>}.next|))
(define-fun .def_208 () Int (+ .def_10 .def_207))
(define-fun .def_209 () Bool (= .def_208 (- 1)))
(define-fun .def_210 () Bool (and .def_98 .def_209))
(define-fun .def_212 () Bool (and .def_210 .def_211))
(define-fun .def_216 () Bool (and .def_212 .def_215))
(define-fun .def_217 () Bool (and .def_106 .def_216))
(define-fun .def_218 () Bool (and .def_108 .def_217))
(define-fun .def_219 () Bool (and .def_110 .def_218))
(define-fun .def_220 () Bool (and .def_112 .def_219))
(define-fun .def_185 () Int (* (- 1) |%{$(in_main#0)<idx>}#4|))
(define-fun .def_186 () Int (+ .def_14 .def_185))
(define-fun .def_187 () Bool (= .def_186 1))
(define-fun .def_172 () Int (+ .def_14 (- 1)))
(define-fun .def_173 () Int (select .def_22 .def_172))
(define-fun .def_174 () Bool (= .def_20 .def_173))
(define-fun .def_189 () Bool (and .def_174 .def_187))
(define-fun .def_184 () Bool (= |%{$(in_main#0)<idx>}#2| |%{$(in_main#0)<idx>}#4|))
(define-fun .def_175 () Bool (not .def_174))
(define-fun .def_188 () Bool (and .def_175 .def_184))
(define-fun .def_190 () Bool (or .def_188 .def_189))
(define-fun .def_221 () Bool (and .def_190 .def_220))
(define-fun .def_167 () Bool (= .def_10 |%{$(in_main#0)<idx>}#2|))
(define-fun .def_159 () Int (select .def_22 .def_10))
(define-fun .def_160 () Bool (= .def_20 .def_159))
(define-fun .def_169 () Bool (and .def_160 .def_167))
(define-fun .def_166 () Bool (= .def_12 |%{$(in_main#0)<idx>}#2|))
(define-fun .def_161 () Bool (not .def_160))
(define-fun .def_168 () Bool (and .def_161 .def_166))
(define-fun .def_170 () Bool (or .def_168 .def_169))
(define-fun .def_222 () Bool (and .def_170 .def_221))
(define-fun .def_223 () Bool (and .def_158 .def_222))
(define-fun .def_244 () Bool (and .def_223 .def_243))
(define-fun .def_248 () Bool (or .def_244 .def_247))
(define-fun .def_251 () Bool (or .def_248 .def_250))
(define-fun .def_142 () Bool (= !pc.next 0))
(define-fun .def_133 () Bool (= .def_44 115))
(define-fun .def_143 () Bool (and .def_133 .def_142))
(define-fun .def_128 () Bool (and .def_108 .def_118))
(define-fun .def_129 () Bool (and .def_110 .def_128))
(define-fun .def_130 () Bool (and .def_112 .def_129))
(define-fun .def_87 () Bool (<= .def_8 .def_18))
(define-fun .def_131 () Bool (and .def_87 .def_130))
(define-fun .def_144 () Bool (and .def_131 .def_143))
(define-fun .def_139 () Bool (and .def_133 .def_138))
(define-fun .def_120 () Int (* (- 1) |!{$(in_main#0)<k#1>}.next|))
(define-fun .def_121 () Int (+ .def_18 .def_120))
(define-fun .def_122 () Bool (= .def_121 (- 1)))
(define-fun .def_123 () Bool (and .def_118 .def_122))
(define-fun .def_124 () Bool (and .def_110 .def_123))
(define-fun .def_125 () Bool (and .def_112 .def_124))
(define-fun .def_89 () Int (select .def_22 .def_18))
(define-fun .def_90 () Bool (= .def_20 .def_89))
(define-fun .def_91 () Bool (not .def_90))
(define-fun .def_92 () Int (ite .def_91 1 0))
(define-fun .def_93 () Bool (= .def_92 0))
(define-fun .def_94 () Bool (not .def_93))
(define-fun .def_126 () Bool (and .def_94 .def_125))
(define-fun .def_88 () Bool (not .def_87))
(define-fun .def_127 () Bool (and .def_88 .def_126))
(define-fun .def_140 () Bool (and .def_127 .def_139))
(define-fun .def_135 () Bool (= !pc.next 135))
(define-fun .def_136 () Bool (and .def_133 .def_135))
(define-fun .def_99 () Bool (and .def_93 .def_98))
(define-fun .def_101 () Bool (and .def_99 .def_100))
(define-fun .def_103 () Bool (and .def_101 .def_102))
(define-fun .def_105 () Bool (and .def_103 .def_104))
(define-fun .def_107 () Bool (and .def_105 .def_106))
(define-fun .def_109 () Bool (and .def_107 .def_108))
(define-fun .def_111 () Bool (and .def_109 .def_110))
(define-fun .def_113 () Bool (and .def_111 .def_112))
(define-fun .def_114 () Bool (and .def_88 .def_113))
(define-fun .def_137 () Bool (and .def_114 .def_136))
(define-fun .def_141 () Bool (or .def_137 .def_140))
(define-fun .def_145 () Bool (or .def_141 .def_144))
(define-fun .def_85 () Bool (and .def_47 .def_84))
(define-fun .def_80 () Bool (= |!{$(in_main#0)<array.1>}.next| |%{$(in_main#0)<array.1>}#1|))
(define-fun .def_78 () Bool (= |!{$(in_main#0)<v>}.next| |%{$(in_main#0)<v>}#1|))
(define-fun .def_76 () Bool (= |!{$(in_main#0)<k#1>}.next| |%{$(in_main#0)<k#1>}#1|))
(define-fun .def_74 () Bool (= |!{$(in_main#0)<k>}.next| 0))
(define-fun .def_72 () Bool (= |!{$(in_main#0)<j>}.next| |%{$(in_main#0)<j>}#1|))
(define-fun .def_70 () Bool (= |!{$(in_main#0)<idx>}.next| |%{$(in_main#0)<idx>}#1|))
(define-fun .def_68 () Bool (= |!{$(in_main#0)<i>}.next| |%{$(in_main#0)<i>}#1|))
(define-fun .def_67 () Bool (= |!{$(in_main#0)<N>}.next| |!{$(in_main#0)<$(in___VERIFIER_nondet_int#0)<h#<__VERIFIER_nondet_int.return>>>}|))
(define-fun .def_69 () Bool (and .def_67 .def_68))
(define-fun .def_71 () Bool (and .def_69 .def_70))
(define-fun .def_73 () Bool (and .def_71 .def_72))
(define-fun .def_75 () Bool (and .def_73 .def_74))
(define-fun .def_77 () Bool (and .def_75 .def_76))
(define-fun .def_79 () Bool (and .def_77 .def_78))
(define-fun .def_81 () Bool (and .def_79 .def_80))
(define-fun .def_62 () Bool (<= |!{$(in_main#0)<$(in___VERIFIER_nondet_int#0)<h#<__VERIFIER_nondet_int.return>>>}| 0))
(define-fun .def_63 () Bool (not .def_62))
(define-fun .def_64 () Int (ite .def_63 1 0))
(define-fun .def_65 () Bool (= .def_64 0))
(define-fun .def_66 () Bool (not .def_65))
(define-fun .def_82 () Bool (and .def_66 .def_81))
(define-fun .def_86 () Bool (and .def_82 .def_85))
(define-fun .def_146 () Bool (or .def_86 .def_145))
(define-fun .def_252 () Bool (or .def_146 .def_251))
(define-fun .def_284 () Bool (! (or .def_252 .def_283) :trans true))
(define-fun .def_150 () Bool (= .def_44 161))
(define-fun .def_147 () Bool (= .def_44 135))
(define-fun .def_285 () Bool (or .def_147 .def_150))
(define-fun .def_286 () Bool (! (not .def_285) :invar-property 0 :invar-property-name ||))
(assert true)
